c description: Perfect Matching Principle on 
c generator: CNFgen (0.9.0)
c copyright: (C) 2012-2020 Massimo Lauria <massimo.lauria@uniroma1.it>
c url: https://massimolauria.net/cnfgen
c
p cnf 80 362
-1 -2 0
-1 -3 0
-1 -4 0
-1 -5 0
-2 -3 0
-2 -4 0
-2 -5 0
-3 -4 0
-3 -5 0
-4 -5 0
1 2 3 4 5 0
-6 -7 0
6 7 0
-6 -8 0
-6 -9 0
-6 -10 0
-6 -11 0
-6 -12 0
-8 -9 0
-8 -10 0
-8 -11 0
-8 -12 0
-9 -10 0
-9 -11 0
-9 -12 0
-10 -11 0
-10 -12 0
-11 -12 0
6 8 9 10 11 12 0
-13 -14 0
-13 -15 0
-14 -15 0
13 14 15 0
16 0
-17 -18 0
-17 -19 0
-18 -19 0
17 18 19 0
-20 -21 0
-20 -22 0
-21 -22 0
20 21 22 0
-23 -24 0
-23 -25 0
-23 -26 0
-23 -27 0
-24 -25 0
-24 -26 0
-24 -27 0
-25 -26 0
-25 -27 0
-26 -27 0
23 24 25 26 27 0
-20 -23 0
-20 -28 0
-20 -29 0
-20 -30 0
-20 -31 0
-20 -32 0
-23 -28 0
-23 -29 0
-23 -30 0
-23 -31 0
-23 -32 0
-28 -29 0
-28 -30 0
-28 -31 0
-28 -32 0
-29 -30 0
-29 -31 0
-29 -32 0
-30 -31 0
-30 -32 0
-31 -32 0
20 23 28 29 30 31 32 0
-33 -34 0
-33 -35 0
-34 -35 0
33 34 35 0
-1 -17 0
-1 -36 0
-1 -37 0
-1 -38 0
-1 -39 0
-17 -36 0
-17 -37 0
-17 -38 0
-17 -39 0
-36 -37 0
-36 -38 0
-36 -39 0
-37 -38 0
-37 -39 0
-38 -39 0
1 17 36 37 38 39 0
-28 -40 0
-28 -41 0
-28 -42 0
-28 -43 0
-28 -44 0
-40 -41 0
-40 -42 0
-40 -43 0
-40 -44 0
-41 -42 0
-41 -43 0
-41 -44 0
-42 -43 0
-42 -44 0
-43 -44 0
28 40 41 42 43 44 0
-8 -45 0
-8 -46 0
-8 -47 0
-45 -46 0
-45 -47 0
-46 -47 0
8 45 46 47 0
48 0
0
-36 -49 0
36 49 0
-37 -40 0
-37 -49 0
-37 -50 0
-37 -51 0
-37 -52 0
-37 -53 0
-37 -54 0
-37 -55 0
-40 -49 0
-40 -50 0
-40 -51 0
-40 -52 0
-40 -53 0
-40 -54 0
-40 -55 0
-49 -50 0
-49 -51 0
-49 -52 0
-49 -53 0
-49 -54 0
-49 -55 0
-50 -51 0
-50 -52 0
-50 -53 0
-50 -54 0
-50 -55 0
-51 -52 0
-51 -53 0
-51 -54 0
-51 -55 0
-52 -53 0
-52 -54 0
-52 -55 0
-53 -54 0
-53 -55 0
-54 -55 0
37 40 49 50 51 52 53 54 55 0
-2 -41 0
-2 -56 0
-2 -57 0
-41 -56 0
-41 -57 0
-56 -57 0
2 41 56 57 0
-21 -24 0
-21 -45 0
-21 -58 0
-24 -45 0
-24 -58 0
-45 -58 0
21 24 45 58 0
-50 -59 0
-50 -60 0
-59 -60 0
50 59 60 0
-46 -51 0
-46 -61 0
-51 -61 0
46 51 61 0
-22 -29 0
-22 -62 0
-29 -62 0
22 29 62 0
-48 -62 0
-48 -63 0
-62 -63 0
48 62 63 0
-30 -64 0
-30 -65 0
-64 -65 0
30 64 65 0
-3 -31 0
-3 -59 0
-3 -66 0
-3 -67 0
-3 -68 0
-3 -69 0
-3 -70 0
-31 -59 0
-31 -66 0
-31 -67 0
-31 -68 0
-31 -69 0
-31 -70 0
-59 -66 0
-59 -67 0
-59 -68 0
-59 -69 0
-59 -70 0
-66 -67 0
-66 -68 0
-66 -69 0
-66 -70 0
-67 -68 0
-67 -69 0
-67 -70 0
-68 -69 0
-68 -70 0
-69 -70 0
3 31 59 66 67 68 69 70 0
-33 -61 0
-33 -71 0
-33 -72 0
-61 -71 0
-61 -72 0
-71 -72 0
33 61 71 72 0
-9 -18 0
-9 -58 0
-9 -73 0
-18 -58 0
-18 -73 0
-58 -73 0
9 18 58 73 0
34 0
-10 -13 0
-10 -71 0
-10 -74 0
-10 -75 0
-13 -71 0
-13 -74 0
-13 -75 0
-71 -74 0
-71 -75 0
-74 -75 0
10 13 71 74 75 0
-66 -76 0
66 76 0
-56 -72 0
-56 -77 0
-72 -77 0
56 72 77 0
-4 -25 0
-4 -52 0
-4 -67 0
-25 -52 0
-25 -67 0
-52 -67 0
4 25 52 67 0
-7 -42 0
-7 -63 0
-42 -63 0
7 42 63 0
-53 -78 0
53 78 0
-5 -26 0
-5 -43 0
-5 -54 0
-5 -68 0
-5 -74 0
-5 -76 0
-5 -78 0
-26 -43 0
-26 -54 0
-26 -68 0
-26 -74 0
-26 -76 0
-26 -78 0
-43 -54 0
-43 -68 0
-43 -74 0
-43 -76 0
-43 -78 0
-54 -68 0
-54 -74 0
-54 -76 0
-54 -78 0
-68 -74 0
-68 -76 0
-68 -78 0
-74 -76 0
-74 -78 0
-76 -78 0
5 26 43 54 68 74 76 78 0
-14 -16 0
-14 -27 0
-14 -69 0
-14 -77 0
-16 -27 0
-16 -69 0
-16 -77 0
-27 -69 0
-27 -77 0
-69 -77 0
14 16 27 69 77 0
-35 -38 0
-35 -47 0
-35 -70 0
-35 -73 0
-38 -47 0
-38 -70 0
-38 -73 0
-47 -70 0
-47 -73 0
-70 -73 0
35 38 47 70 73 0
-11 -39 0
-11 -44 0
-11 -64 0
-11 -79 0
-39 -44 0
-39 -64 0
-39 -79 0
-44 -64 0
-44 -79 0
-64 -79 0
11 39 44 64 79 0
-12 -15 0
-12 -55 0
-12 -65 0
-12 -80 0
-15 -55 0
-15 -65 0
-15 -80 0
-55 -65 0
-55 -80 0
-65 -80 0
12 15 55 65 80 0
-19 -32 0
-19 -57 0
-19 -60 0
-19 -75 0
-19 -79 0
-19 -80 0
-32 -57 0
-32 -60 0
-32 -75 0
-32 -79 0
-32 -80 0
-57 -60 0
-57 -75 0
-57 -79 0
-57 -80 0
-60 -75 0
-60 -79 0
-60 -80 0
-75 -79 0
-75 -80 0
-79 -80 0
19 32 57 60 75 79 80 0